50 520
1 5
1 9
1 11
1 12
1 14
1 15
1 17
1 19
1 21
1 27
1 28
1 29
1 30
1 31
1 35
1 38
1 40
1 43
1 46
1 48
1 49
2 7
2 8
2 9
2 13
2 14
2 16
2 17
2 19
2 20
2 21
2 22
2 23
2 24
2 27
2 28
2 34
2 35
2 36
2 40
2 44
2 45
2 48
3 6
3 7
3 9
3 20
3 21
3 22
3 23
3 24
3 25
3 26
3 30
3 32
3 35
3 36
3 37
3 38
3 39
3 41
3 42
3 45
3 46
3 47
3 49
4 5
4 9
4 11
4 12
4 14
4 16
4 17
4 19
4 20
4 22
4 24
4 25
4 26
4 27
4 30
4 33
4 35
4 37
4 43
4 45
5 6
5 7
5 8
5 9
5 12
5 13
5 15
5 16
5 20
5 23
5 27
5 28
5 37
5 38
5 39
5 42
5 43
5 48
5 50
6 7
6 10
6 12
6 15
6 20
6 22
6 23
6 24
6 26
6 28
6 31
6 32
6 38
6 39
6 42
6 45
6 46
6 49
6 50
7 11
7 15
7 16
7 20
7 24
7 27
7 28
7 29
7 31
7 32
7 36
7 38
7 40
7 41
7 42
7 43
7 44
7 46
7 49
7 50
8 11
8 16
8 17
8 20
8 21
8 27
8 28
8 29
8 34
8 38
8 42
8 43
8 45
8 47
8 49
8 50
9 12
9 13
9 17
9 18
9 23
9 24
9 25
9 26
9 28
9 31
9 33
9 34
9 35
9 36
9 38
9 40
9 43
9 44
9 46
9 49
10 11
10 16
10 17
10 18
10 21
10 23
10 25
10 26
10 28
10 30
10 31
10 33
10 34
10 35
10 36
10 37
10 40
10 41
10 44
10 47
10 50
11 15
11 16
11 17
11 19
11 27
11 31
11 33
11 35
11 36
11 37
11 40
11 41
11 42
11 44
11 45
12 13
12 16
12 20
12 21
12 22
12 23
12 30
12 37
12 40
12 43
12 45
12 47
12 48
13 17
13 18
13 19
13 23
13 29
13 30
13 32
13 33
13 36
13 37
13 39
13 43
13 44
13 45
13 47
14 15
14 18
14 19
14 20
14 22
14 23
14 25
14 27
14 29
14 30
14 32
14 34
14 38
14 39
14 40
14 45
14 46
14 49
15 17
15 18
15 25
15 26
15 28
15 29
15 30
15 36
15 37
15 38
15 39
15 40
15 42
15 45
15 46
15 48
16 19
16 24
16 27
16 30
16 33
16 34
16 35
16 37
16 39
16 45
16 46
17 18
17 19
17 21
17 22
17 23
17 24
17 28
17 33
17 34
17 38
17 39
17 43
17 45
17 46
17 48
18 20
18 22
18 24
18 26
18 31
18 33
18 34
18 36
18 39
18 40
18 41
19 20
19 22
19 23
19 24
19 25
19 27
19 30
19 31
19 34
19 38
19 39
19 40
19 42
19 45
20 22
20 26
20 28
20 33
20 34
20 38
20 40
20 42
20 43
20 50
21 22
21 24
21 28
21 29
21 34
21 36
21 39
21 40
21 44
21 45
21 48
22 27
22 28
22 31
22 32
22 37
22 38
22 39
22 41
22 43
22 45
22 46
22 50
23 25
23 26
23 28
23 29
23 32
23 33
23 35
23 39
23 40
23 44
23 45
23 48
23 50
24 31
24 32
24 35
24 36
24 38
24 39
24 40
24 43
24 45
24 47
25 28
25 29
25 33
25 38
25 43
25 46
25 47
25 48
26 28
26 30
26 31
26 34
26 36
26 38
26 39
26 44
26 45
26 46
26 48
27 28
27 29
27 31
27 35
27 36
27 39
27 40
27 42
27 47
27 50
28 29
28 32
28 34
28 37
28 40
28 41
28 47
28 50
29 30
29 32
29 33
29 35
29 36
29 39
29 40
29 41
29 42
29 43
29 45
29 49
29 50
30 36
30 37
30 38
30 40
30 44
30 46
30 47
30 50
31 32
31 39
31 41
31 45
31 47
31 48
31 49
32 33
32 34
32 35
32 36
32 38
32 39
32 43
32 45
32 46
32 47
32 50
33 37
33 41
33 45
33 47
34 35
34 36
34 40
34 43
34 44
34 45
34 50
35 37
35 38
35 45
35 46
35 50
36 37
36 39
36 42
36 45
36 46
36 47
37 39
37 43
37 45
37 47
37 48
38 40
38 45
38 46
38 47
39 40
39 41
39 42
39 43
39 45
39 46
39 47
40 41
40 42
40 43
40 44
40 49
41 45
41 46
41 47
41 50
42 44
42 46
43 47
43 48
44 45
44 47
44 50
45 46
47 48
47 49
47 50
48 49
